evm/ejemplos_dzn/EthPriceMintModule_run_code_of_0_block_80_0_input.dzn
TERM = { '.', s0, s1};
null = '.';
s = 3;
n = 2;
min = 3;
N0 = 0;
ZEROARYOP = {};
zeroout = [];
zerogas = [];
zerosz =  [];
zerolb =  [];
zeroub =  [];
N1 = 0;
UNARYOP = {};
unin =  [];
unout = [];
ungas = [];
unsz =  [];
unlb =  [];
unub =  [];
N2 = 0;
BINARYOP = {};
binin1 =  [];
binin2 =  [];
binout = [];
bincomm = [];
bingas = [];
binsz =  [];
binlb =  [];
binub =  [];
NA = 0;
ASSOCIATIVEADDOP = {};
naddin =  [];
addin =  [||];
addout = [];
addcomm = [];
addgas = [];
addsz =  [];
addlb =  [];
addub =  [];
NPUSH = 2;
PUSHOP = { PUSH_0, PUSH_1 };
pushout = [ s0, s1 ];
pushgas = [ 3, 3 ];
pushsz = [ 2, 2 ];
pushlb = [ 1, 1 ];
pushub = [ 3, 3 ];
NSTORE = 1;
STOROP = { SSTORE_0 };
storin1 = [s0 ];
storin2 = [s1 ];
storgas = [ 5000 ];
storsz = [ 1 ];
storlb = [ 1 ];
storub = [ 3 ];
DUP_ENUM = { DUP1};
SWAP_ENUM = { SWAP1};
startstack = [ null, null ];
endstack = [ null, null ];
m_dep_n = 0;
memory_dependences = [| |];
s_dep_n = 0;
store_dependences = [| |];
lib = false;
nlib = 0;
lib_elem = [| |];
lib_dis = [];
