evm/ejemplos_results/EthPriceMintModule_run_code_of_0_block_80_0_input.txt
value = 3;
fgas = [3, 3, 5000];
fsize = [2, 2, 1];
states = 
[| '.', '.'
 |  s1, '.'
 |  s0,  s1
 | '.', '.'
 |];
program = [P(PUSH_1), P(PUSH_0), ST(SSTORE_0)];
% time elapsed: 0.41 s
----------
==========
% time elapsed: 0.41 s
% [value > 2]
